\ LP format - for model browsing. Use MPS format to capture full model detail.
Minimize
  5.62325e-07 X[1559766,1595470,2] + 5.15853e-06 X[1559766,1595470,1]
   + 6.26605e-07 X[1559768,1559766,3] + 2.67327e-05 X[1559768,1559766,1]
   + 2.50701e-07 X[1559771,1559766,2] + 2.29982e-06 X[1559771,1559766,1]
   + 2.5833e-05 X[1559772,1559766,1] + 1.33415e-05 X[1559775,1559765,1]
   + 4.63925e-07 X[1559770,1595478,2] + 4.25585e-06 X[1559770,1595478,1]
   + 6.26605e-07 X[1559779,1559766,3] + 2.1481e-06 X[1559775,1559766,2]
   + 1.97057e-05 X[1559775,1559766,1] + 2.67052e-05 X[1559779,1559766,1]
   + 2.90951e-05 X[1559779,1559781,1] + 1.59802e-05 X[1559767,1559764,1]
   + 2.99072e-07 X[1559781,1559770,2] + 2.74356e-06 X[1559781,1559770,1]
   + 1.61107e-07 X[1559773,1559767,2] + 1.47793e-06 X[1559773,1559767,1]
   + 3.01777e-07 X[1559765,1559773,4] + 5.40918e-07 X[1559765,1559773,3]
   + 1.33415e-05 X[1559765,1559773,1] + 2.78312e-06 X[1559764,1595462,2]
   + 1.84397e-05 X[1559768,1559773,1] + 1.83838e-05 X[1559776,1559773,1]
   + 5.40918e-07 X[1559779,1559773,3] + 1.83838e-05 X[1559779,1559773,1]
   + 0 O[1595822] + 0 O[1595590] + 0 O[1595591] + 0 O[1595592]
   + 0 O[1595593] + 0 O[1595594] + 0 O[1595595] + 0 O[1595596]
   + 0 O[1595597] + 0 O[1595598] + 0 O[1595599] + 0 O[1595600]
   + 0 O[1595601] + 0 O[1595602] + 0 O[1595603] + 0 O[1595764]
   + 0 O[1595765] + 0 O[1595766] + 0 O[1595767] + 0 O[1595768]
   + 0 O[1595769] + 0 O[1595770] + 0 O[1595771] + 0 O[1595772]
   + 0 O[1595773] + 0 O[1595774] + 0 O[1595775] + 0 O[1595776]
   + 0 O[1595777] + 0 O[1595778] + 0 O[1595779] + 0 O[1595780]
   + 0 O[1595781] + 0 O[1595782] + 0 O[1595783] + 0 O[1595784]
   + 0 O[1595785] + 0 O[1595786] + 0 O[1595787] + 0 O[1595788]
   + 0 O[1595789] + 0 O[1595790] + 0 O[1595791] + 0 O[1595792]
   + 0 O[1595793] + 0 O[1595794] + 0 O[1595795] + 0 O[1595796]
   + 0 O[1595797] + 0 O[1595798] + 0 O[1595799] + 0 O[1595800]
   + 0 O[1595801] + 0 O[1595802] + 0 O[1595803] + 0 O[1595804]
   + 0 O[1595805] + 0 O[1595806] + 0 O[1595807] + 0 O[1595808]
   + 0 O[1595809] + 0 O[1595810] + 0 O[1595811] + 0 O[1595812]
   + 0 O[1595813] + 0 O[1595814] + 0 O[1595815] + 0 O[1595816]
   + 0 O[1595817] + 0 O[1595818] + 0 O[1595819] + 0 O[1595820]
   + 0 O[1595821] + 0 O[1559769] + 0 O[1559771] + 0 O[1559772]
   + 0 O[1559774] + 0 O[1559775] + 0 O[1559776] + 0 O[1559777]
   + 0 O[1559778] + 0 O[1559779] + 0 O[1559780] + 0 O[1596300]
   + 0 O[1595447] + 0 O[1595448] + 0 O[1595449] + 0 O[1595450]
   + 0 O[1595451] + 0 O[1595452] + 0 O[1595453] + 0 O[1595454]
   + 0 O[1595455] + 0 O[1595456] + 0 O[1595457] + 0 O[1595458]
   + 0 O[1595459] + 0 O[1595460] + 0 O[1595461] + 0 O[1595462]
   + 0 O[1595463] + 0 O[1595464] + 0 O[1595465] + 0 O[1595466]
   + 0 O[1595467] + 0 O[1595468] + 0 O[1595469] + 0 O[1595470]
   + 0 O[1595471] + 0 O[1595472] + 0 O[1595473] + 0 O[1595474]
   + 0 O[1595475] + 0 O[1595476] + 0 O[1595477] + 0 O[1595478]
   + 0 O[1595479] + 0 O[1595480] + 0 O[1595481] + 0 O[1595482]
   + 0 O[1595483] + 0 O[1595484] + 0 O[1595485] + 0 O[1595486]
   + 0 O[1595487] + 0 O[1595488] + 0 O[1595489] + 0 O[1595490]
   + 0 O[1595491] + 0 O[1595492] + 0 O[1595493] + 0 O[1595494]
   + 0 O[1595495] + 0 O[1595496] + 0 O[1595497] + 0 O[1595498]
   + 0 O[1595499] + 0 O[1595500] + 0 O[1595501] + 0 O[1595502]
   + 0 O[1595503] + 0 O[1595504] + 0 O[1595735] + 0 O[1595736]
   + 0 O[1595737] + 0 O[1595738] + 0 O[1595739] + 0 O[1595740]
   + 0 O[1595741] + 0 O[1595742] + 0 O[1595743] + 0 O[1595744]
   + 0 O[1595745] + 0 O[1595746] + 0 O[1595747] + 0 O[1595748]
   + 0 O[1595749] + 0 O[1595750] + 0 O[1595751] + 0 O[1595752]
   + 0 O[1595753] + 0 O[1595754] + 0 O[1595755] + 0 O[1595756]
   + 0 O[1595757] + 0 O[1595758] + 0 O[1595759] + 0 O[1595760]
   + 0 O[1595761] + 0 O[1595762] + 0 O[1595763] + 0 O[1595842]
   + 0 O[1595843] + 0 O[1595844] + 0 O[1595845] + 0 O[1595846]
   + 0 O[1595847] + 0 O[1595848] + 0 O[1595849] + 0 O[1595850]
   + 0 O[1595851] + 0 O[1595852] + 0 O[1595853] + 0 O[1595854]
   + 0 O[1595855] + 0 O[1595856] + 0 O[1595857] + 0 O[1595858]
   + 0 O[1595859] + 0 O[1595860] + 0 O[1595861] + 0 O[1595862]
   + 0 O[1595863] + 0 O[1595864] + 0 O[1595865] + 0 O[1595866]
   + 0 O[1595867] + 0 O[1595868] + 0 O[1595869] + 0 O[1595870]
   + 0 O[1595871] + 0 O[1595872] + 0 O[1595873] + 0 O[1595874]
   + 0 O[1595875] + 0 O[1595876] + 0 O[1595877] + 0 O[1595878]
   + 0 O[1595879] + 0 O[1595880] + 0 O[1595881] + 0 O[1595882]
   + 0 O[1595883] + 0 O[1595884] + 0 O[1596085] + 0 O[1596086]
   + 0 O[1596087] + 0 O[1596088] + 0 O[1596089] + 0 O[1596090]
   + 0 O[1596091] + 0 O[1596092] + 0 O[1596093] + 0 O[1596094]
   + 0 O[1596095] + 0 O[1596096] + 0 O[1596097] + 0 O[1596098]
   + 0 O[1596099] + 0 O[1596100] + 0 O[1596101] + 0 O[1596102]
   + 0 O[1596103] + 0 O[1596104] + 0 O[1596105] + 0 O[1596106]
   + 0 O[1596107] + 0 O[1596108] + 0 O[1596109] + 0 O[1596110]
   + 0 O[1596111] + 0 O[1596112] + 0 O[1596113] + 0 O[1596114]
   + 0 O[1596115] + 0 O[1596116] + 0 O[1596117] + 0 O[1596118]
   + 0 O[1596119] + 0 O[1596120] + 0 O[1596121] + 0 O[1596173]
   + 0 O[1596174] + 0 O[1596175] + 0 O[1596176] + 0 O[1596177]
   + 0 O[1596178] + 0 O[1596179] + 0 O[1596180] + 0 O[1596181]
   + 0 O[1596182] + 0 O[1596183] + 0 O[1596184] + 0 O[1596185]
   + 0 O[1596186] + 0 O[1596187] + 0 O[1596188] + 0 O[1596189]
   + 0 O[1596190] + 0 O[1596191] + 0 O[1596192] + 0 O[1596193]
   + 0 O[1596194] + 0 O[1596195] + 0 O[1596196] + 0 O[1596197]
   + 0 O[1596198] + 0 O[1596199] + 0 O[1596200] + 0 O[1596201]
   + 0 O[1596202] + 0 O[1596203] + 0 O[1596204] + 0 O[1596205]
   + 0 O[1596206] + 0 O[1596355] + 0 O[1596356] + 0 O[1596357]
   + 0 O[1596358] + 0 O[1596359] + 0 O[1596360] + 0 O[1596361]
   + 0 O[1596362] + 0 O[1596363] + 0 O[1596364] + 0 O[1596365]
   + 0 O[1596366] + 0 O[1596367] + 0 O[1596368] + 0 O[1596369]
   + 0 O[1596370] + 0 O[1596371] + 0 O[1596372] + 0 O[1596373]
   + 0 O[1596374] + 0 O[1596375] + 0 O[1596376] + 0 O[1596377]
   + 0 O[1596378] + 0 O[1596379] + 0 O[1596380] + 0 O[1596381]
   + 0 O[1596382] + 0 O[1596383] + 0 O[1596384] + 0 O[1596385]
   + 0 O[1596386] + 0 O[1596387] + 0 O[1596388] + 0 O[1596389]
   + 0 O[1596390] + 0 O[1595605] + 0 O[1595606] + 0 O[1595607]
   + 0 O[1595608] + 0 O[1595609] + 0 O[1595610] + 0 O[1595611]
   + 0 O[1595612] + 0 O[1595613] + 0 O[1595614] + 0 O[1595615]
   + 0 O[1595616] + 0 O[1595617] + 0 O[1595618] + 0 O[1595619]
   + 0 O[1595620] + 0 O[1595621] + 0 O[1595622] + 0 O[1595623]
   + 0 O[1595624] + 0 O[1595625] + 0 O[1595626] + 0 O[1595627]
   + 0 O[1595628] + 0 O[1595629] + 0 O[1595630] + 0 O[1595631]
   + 0 O[1595632] + 0 O[1595633] + 0 O[1595634] + 0 O[1595635]
   + 0 O[1595636] + 0 O[1595637] + 0 O[1595638] + 0 O[1595639]
   + 0 O[1595640] + 0 O[1595604] + 0 O[1595526] + 0 O[1595527]
   + 0 O[1595528] + 0 O[1595529] + 0 O[1595530] + 0 O[1595531]
   + 0 O[1595532] + 0 O[1595533] + 0 O[1595534] + 0 O[1595535]
   + 0 O[1595536] + 0 O[1595537] + 0 O[1595538] + 0 O[1595539]
   + 0 O[1595540] + 0 O[1595541] + 0 O[1595542] + 0 O[1595543]
   + 0 O[1595544] + 0 O[1595545] + 0 O[1595546] + 0 O[1595547]
   + 0 O[1595548] + 0 O[1595549] + 0 O[1595550] + 0 O[1595551]
   + 0 O[1595552] + 0 O[1595553] + 0 O[1595554] + 0 O[1595555]
   + 0 O[1595556] + 0 O[1595557] + 0 O[1595558] + 0 O[1595559]
   + 0 O[1595560] + 0 O[1595561] + 0 O[1595562] + 0 O[1595563]
   + 0 O[1595564] + 0 O[1595565] + 0 O[1595566] + 0 O[1595567]
   + 0 O[1595568] + 0 O[1595569] + 0 O[1595570] + 0 O[1595571]
   + 0 O[1595572] + 0 O[1595573] + 0 O[1595574] + 0 O[1595575]
   + 0 O[1595576] + 0 O[1595577] + 0 O[1595578] + 0 O[1595579]
   + 0 O[1595580] + 0 O[1595581] + 0 O[1595582] + 0 O[1595583]
   + 0 O[1595584] + 0 O[1595585] + 0 O[1595586] + 0 O[1595587]
   + 0 O[1595588] + 0 O[1595589] + 0 O[1596003] + 0 O[1596004]
   + 0 O[1596005] + 0 O[1596006] + 0 O[1596007] + 0 O[1596008]
   + 0 O[1596009] + 0 O[1596010] + 0 O[1596011] + 0 O[1596012]
   + 0 O[1596122] + 0 O[1596123] + 0 O[1596124] + 0 O[1596125]
   + 0 O[1596126] + 0 O[1596127] + 0 O[1596128] + 0 O[1596129]
   + 0 O[1596130] + 0 O[1596131] + 0 O[1596132] + 0 O[1596133]
   + 0 O[1596134] + 0 O[1596135] + 0 O[1596136] + 0 O[1596137]
   + 0 O[1596138] + 0 O[1596139] + 0 O[1596140] + 0 O[1596141]
   + 0 O[1596142] + 0 O[1596143] + 0 O[1596144] + 0 O[1596145]
   + 0 O[1596146] + 0 O[1596147] + 0 O[1596148] + 0 O[1596149]
   + 0 O[1596150] + 0 O[1596151] + 0 O[1596152] + 0 O[1596153]
   + 0 O[1596154] + 0 O[1596155] + 0 O[1596156] + 0 O[1596157]
   + 0 O[1596158] + 0 O[1596159] + 0 O[1596160] + 0 O[1596161]
   + 0 O[1596162] + 0 O[1596163] + 0 O[1596164] + 0 O[1596165]
   + 0 O[1596166] + 0 O[1596167] + 0 O[1596168] + 0 O[1596169]
   + 0 O[1596170] + 0 O[1596171] + 0 O[1596172] + 0 O[1596224]
   + 0 O[1596225] + 0 O[1596226] + 0 O[1596227] + 0 O[1596228]
   + 0 O[1596229] + 0 O[1596230] + 0 O[1596231] + 0 O[1596232]
   + 0 O[1596233] + 0 O[1596234] + 0 O[1596235] + 0 O[1596236]
   + 0 O[1596237] + 0 O[1596238] + 0 O[1596239] + 0 O[1596240]
   + 0 O[1596241] + 0 O[1596242] + 0 O[1596243] + 0 O[1596244]
   + 0 O[1596245] + 0 O[1596246] + 0 O[1596247] + 0 O[1596248]
   + 0 O[1596249] + 0 O[1596250] + 0 O[1596251] + 0 O[1596252]
   + 0 O[1596253] + 0 O[1596254] + 0 O[1596255] + 0 O[1596256]
   + 0 O[1596257] + 0 O[1596258] + 0 O[1596259] + 0 O[1596260]
   + 0 O[1596261] + 0 O[1596262] + 0 O[1596263] + 0 O[1596264]
   + 0 O[1596265] + 0 O[1596266] + 0 O[1596267] + 0 O[1596268]
   + 0 O[1596269] + 0 O[1596270] + 0 O[1596271] + 0 O[1596272]
   + 0 O[1596273] + 0 O[1596274] + 0 O[1596275] + 0 O[1596276]
   + 0 O[1596277] + 0 O[1596278] + 0 O[1596279] + 0 O[1596280]
   + 0 O[1596281] + 0 O[1596282] + 0 O[1596283] + 0 O[1596284]
   + 0 O[1596285] + 0 O[1596286] + 0 O[1596287] + 0 O[1596288]
   + 0 O[1596289] + 0 O[1596290] + 0 O[1596291] + 0 O[1596292]
   + 0 O[1596293] + 0 O[1596294] + 0 O[1596295] + 0 O[1596296]
   + 0 O[1596297] + 0 O[1596298] + 0 O[1596299] + 0 O[1559764]
   + 0 O[1559768] + 0 O[1595505] + 0 O[1595506] + 0 O[1595507]
   + 0 O[1595508] + 0 O[1595509] + 0 O[1595510] + 0 O[1595511]
   + 0 O[1595512] + 0 O[1595513] + 0 O[1595514] + 0 O[1595515]
   + 0 O[1595516] + 0 O[1595517] + 0 O[1595518] + 0 O[1595519]
   + 0 O[1595520] + 0 O[1595521] + 0 O[1595522] + 0 O[1595523]
   + 0 O[1595524] + 0 O[1595525] + 0 O[1595684] + 0 O[1595685]
   + 0 O[1595686] + 0 O[1595687] + 0 O[1595688] + 0 O[1595689]
   + 0 O[1595690] + 0 O[1595691] + 0 O[1595692] + 0 O[1595693]
   + 0 O[1595694] + 0 O[1595695] + 0 O[1595696] + 0 O[1595697]
   + 0 O[1595698] + 0 O[1595699] + 0 O[1595700] + 0 O[1595701]
   + 0 O[1595702] + 0 O[1595703] + 0 O[1595704] + 0 O[1595705]
   + 0 O[1595706] + 0 O[1595707] + 0 O[1595708] + 0 O[1595709]
   + 0 O[1595710] + 0 O[1595711] + 0 O[1595712] + 0 O[1595713]
   + 0 O[1595714] + 0 O[1595715] + 0 O[1595716] + 0 O[1595717]
   + 0 O[1595718] + 0 O[1595719] + 0 O[1595720] + 0 O[1595721]
   + 0 O[1595722] + 0 O[1595723] + 0 O[1595724] + 0 O[1595725]
   + 0 O[1595726] + 0 O[1595727] + 0 O[1595728] + 0 O[1595729]
   + 0 O[1595730] + 0 O[1595731] + 0 O[1595732] + 0 O[1595733]
   + 0 O[1595734] + 0 O[1595885] + 0 O[1595886] + 0 O[1595887]
   + 0 O[1595888] + 0 O[1595889] + 0 O[1595890] + 0 O[1595891]
   + 0 O[1595892] + 0 O[1595893] + 0 O[1595894] + 0 O[1595895]
   + 0 O[1595896] + 0 O[1595897] + 0 O[1595898] + 0 O[1595899]
   + 0 O[1595900] + 0 O[1595901] + 0 O[1595902] + 0 O[1595903]
   + 0 O[1595904] + 0 O[1595905] + 0 O[1595906] + 0 O[1595907]
   + 0 O[1595908] + 0 O[1595909] + 0 O[1595910] + 0 O[1595911]
   + 0 O[1595912] + 0 O[1595913] + 0 O[1595914] + 0 O[1595915]
   + 0 O[1595916] + 0 O[1595917] + 0 O[1595918] + 0 O[1595919]
   + 0 O[1595920] + 0 O[1595921] + 0 O[1595922] + 0 O[1595923]
   + 0 O[1595924] + 0 O[1595925] + 0 O[1595926] + 0 O[1595927]
   + 0 O[1595928] + 0 O[1595929] + 0 O[1595930] + 0 O[1595931]
   + 0 O[1595932] + 0 O[1595933] + 0 O[1595934] + 0 O[1595935]
   + 0 O[1595936] + 0 O[1595937] + 0 O[1595938] + 0 O[1595939]
   + 0 O[1595940] + 0 O[1595941] + 0 O[1595942] + 0 O[1595943]
   + 0 O[1595944] + 0 O[1595945] + 0 O[1595946] + 0 O[1595947]
   + 0 O[1595948] + 0 O[1595949] + 0 O[1595950] + 0 O[1595951]
   + 0 O[1595952] + 0 O[1596013] + 0 O[1596014] + 0 O[1596015]
   + 0 O[1596016] + 0 O[1596017] + 0 O[1596018] + 0 O[1596019]
   + 0 O[1596020] + 0 O[1596021] + 0 O[1596022] + 0 O[1596023]
   + 0 O[1596024] + 0 O[1596025] + 0 O[1596026] + 0 O[1596027]
   + 0 O[1596028] + 0 O[1596029] + 0 O[1596030] + 0 O[1596031]
   + 0 O[1596032] + 0 O[1596033] + 0 O[1596034] + 0 O[1596035]
   + 0 O[1596036] + 0 O[1596037] + 0 O[1596038] + 0 O[1596039]
   + 0 O[1596040] + 0 O[1596041] + 0 O[1596042] + 0 O[1596043]
   + 0 O[1596044] + 0 O[1596045] + 0 O[1596046] + 0 O[1596047]
   + 0 O[1596048] + 0 O[1596049] + 0 O[1596050] + 0 O[1596051]
   + 0 O[1596052] + 0 O[1596053] + 0 O[1596054] + 0 O[1596055]
   + 0 O[1596056] + 0 O[1596057] + 0 O[1596058] + 0 O[1596059]
   + 0 O[1596060] + 0 O[1596061] + 0 O[1596062] + 0 O[1596063]
   + 0 O[1596064] + 0 O[1596065] + 0 O[1596066] + 0 O[1596067]
   + 0 O[1596068] + 0 O[1596069] + 0 O[1596070] + 0 O[1596071]
   + 0 O[1596072] + 0 O[1596073] + 0 O[1596074] + 0 O[1596075]
   + 0 O[1596076] + 0 O[1596077] + 0 O[1596078] + 0 O[1596079]
   + 0 O[1596080] + 0 O[1596081] + 0 O[1596082] + 0 O[1596083]
   + 0 O[1596084] + 0 O[1596207] + 0 O[1596208] + 0 O[1596209]
   + 0 O[1596210] + 0 O[1596211] + 0 O[1596212] + 0 O[1596213]
   + 0 O[1596214] + 0 O[1596215] + 0 O[1596216] + 0 O[1596217]
   + 0 O[1596218] + 0 O[1596219] + 0 O[1596220] + 0 O[1596221]
   + 0 O[1596222] + 0 O[1596223] + 0 O[1596301] + 0 O[1596302]
   + 0 O[1596303] + 0 O[1596304] + 0 O[1596305] + 0 O[1596306]
   + 0 O[1596307] + 0 O[1596308] + 0 O[1596309] + 0 O[1596310]
   + 0 O[1596311] + 0 O[1596312] + 0 O[1596313] + 0 O[1596314]
   + 0 O[1596315] + 0 O[1596316] + 0 O[1596317] + 0 O[1596318]
   + 0 O[1596319] + 0 O[1596320] + 0 O[1596321] + 0 O[1596322]
   + 0 O[1596323] + 0 O[1596324] + 0 O[1596325] + 0 O[1596326]
   + 0 O[1596327] + 0 O[1596328] + 0 O[1596329] + 0 O[1596330]
   + 0 O[1596331] + 0 O[1596332] + 0 O[1596333] + 0 O[1596334]
   + 0 O[1596335] + 0 O[1596336] + 0 O[1596337] + 0 O[1596338]
   + 0 O[1596339] + 0 O[1596340] + 0 O[1596341] + 0 O[1596342]
   + 0 O[1596343] + 0 O[1596344] + 0 O[1596345] + 0 O[1596346]
   + 0 O[1596347] + 0 O[1596348] + 0 O[1596349] + 0 O[1596350]
   + 0 O[1596351] + 0 O[1596352] + 0 O[1596353] + 0 O[1596354]
   + 0 O[1595641] + 0 O[1595642] + 0 O[1595643] + 0 O[1595644]
   + 0 O[1595645] + 0 O[1595646] + 0 O[1595647] + 0 O[1595648]
   + 0 O[1595649] + 0 O[1595650] + 0 O[1595651] + 0 O[1595652]
   + 0 O[1595653] + 0 O[1595654] + 0 O[1595655] + 0 O[1595656]
   + 0 O[1595657] + 0 O[1595658] + 0 O[1595659] + 0 O[1595660]
   + 0 O[1595661] + 0 O[1595662] + 0 O[1595663] + 0 O[1595664]
   + 0 O[1595665] + 0 O[1595666] + 0 O[1595667] + 0 O[1595668]
   + 0 O[1595669] + 0 O[1595670] + 0 O[1595671] + 0 O[1595672]
   + 0 O[1595673] + 0 O[1595674] + 0 O[1595675] + 0 O[1595676]
   + 0 O[1595677] + 0 O[1595678] + 0 O[1595679] + 0 O[1595680]
   + 0 O[1595681] + 0 O[1595682] + 0 O[1595683] + 0 O[1595823]
   + 0 O[1595824] + 0 O[1595825] + 0 O[1595826] + 0 O[1595827]
   + 0 O[1595828] + 0 O[1595829] + 0 O[1595830] + 0 O[1595831]
   + 0 O[1595832] + 0 O[1595833] + 0 O[1595834] + 0 O[1595835]
   + 0 O[1595836] + 0 O[1595837] + 0 O[1595838] + 0 O[1595839]
   + 0 O[1595840] + 0 O[1595841] + 0 O[1595953] + 0 O[1595954]
   + 0 O[1595955] + 0 O[1595956] + 0 O[1595957] + 0 O[1595958]
   + 0 O[1595959] + 0 O[1595960] + 0 O[1595961] + 0 O[1595962]
   + 0 O[1595963] + 0 O[1595964] + 0 O[1595965] + 0 O[1595966]
   + 0 O[1595967] + 0 O[1595968] + 0 O[1595969] + 0 O[1595970]
   + 0 O[1595971] + 0 O[1595972] + 0 O[1595973] + 0 O[1595974]
   + 0 O[1595975] + 0 O[1595976] + 0 O[1595977] + 0 O[1595978]
   + 0 O[1595979] + 0 O[1595980] + 0 O[1595981] + 0 O[1595982]
   + 0 O[1595983] + 0 O[1595984] + 0 O[1595985] + 0 O[1595986]
   + 0 O[1595987] + 0 O[1595988] + 0 O[1595989] + 0 O[1595990]
   + 0 O[1595991] + 0 O[1595992] + 0 O[1595993] + 0 O[1595994]
   + 0 O[1595995] + 0 O[1595996] + 0 O[1595997] + 0 O[1595998]
   + 0 O[1595999] + 0 O[1596000] + 0 O[1596001] + 0 O[1596002]
Subject To
 customer_flow[1595470]: - X[1559766,1595470,2] - X[1559766,1595470,1]
   = -75
 customer_flow[1595478]: - X[1559770,1595478,2] - X[1559770,1595478,1]
   = -24
 customer_flow[1595462]: - X[1559764,1595462,2] = -379
 non_customer_flow[1559764]: - X[1559767,1559764,1] + X[1559764,1595462,2]
   = 0
 non_customer_flow[1559770]: X[1559770,1595478,2] + X[1559770,1595478,1]
   - X[1559781,1559770,2] - X[1559781,1559770,1] = 0
 non_customer_flow[1559767]: X[1559767,1559764,1] - X[1559773,1559767,2]
   - X[1559773,1559767,1] = 0
 capacity_constraint[1559770]: X[1559781,1559770,2] + X[1559781,1559770,1]
   - 62448 O[1559770] <= 0
 capacity_constraint[1559767]: X[1559773,1559767,2] + X[1559773,1559767,1]
   - 4.969925e+06 O[1559767] <= 0
 non_customer_flow[1559766]: X[1559766,1595470,2] + X[1559766,1595470,1]
   - X[1559768,1559766,3] - X[1559768,1559766,1] - X[1559771,1559766,2]
   - X[1559771,1559766,1] - X[1559772,1559766,1] - X[1559779,1559766,3]
   - X[1559775,1559766,2] - X[1559775,1559766,1] - X[1559779,1559766,1]
   - X[1559780,1559766,1] - X[1559780,1559766,2] = 0
 non_customer_flow[1559766]: X[1559766,1595470,2] + X[1559766,1595470,1]
   - X[1559768,1559766,3] - X[1559768,1559766,1] - X[1559771,1559766,2]
   - X[1559771,1559766,1] - X[1559772,1559766,1] - X[1559779,1559766,3]
   - X[1559775,1559766,2] - X[1559775,1559766,1] - X[1559779,1559766,1]
   - X[1559780,1559766,1] - X[1559780,1559766,2] = 0
 non_customer_flow[1559766]: X[1559766,1595470,2] + X[1559766,1595470,1]
   - X[1559768,1559766,3] - X[1559768,1559766,1] - X[1559771,1559766,2]
   - X[1559771,1559766,1] - X[1559772,1559766,1] - X[1559779,1559766,3]
   - X[1559775,1559766,2] - X[1559775,1559766,1] - X[1559779,1559766,1]
   - X[1559780,1559766,1] - X[1559780,1559766,2] = 0
 non_customer_flow[1559766]: X[1559766,1595470,2] + X[1559766,1595470,1]
   - X[1559768,1559766,3] - X[1559768,1559766,1] - X[1559771,1559766,2]
   - X[1559771,1559766,1] - X[1559772,1559766,1] - X[1559779,1559766,3]
   - X[1559775,1559766,2] - X[1559775,1559766,1] - X[1559779,1559766,1]
   - X[1559780,1559766,1] - X[1559780,1559766,2] = 0
 non_customer_flow[1559781]: - X[1559779,1559781,1] + X[1559781,1559770,2]
   + X[1559781,1559770,1] = 0
 non_customer_flow[1559766]: X[1559766,1595470,2] + X[1559766,1595470,1]
   - X[1559768,1559766,3] - X[1559768,1559766,1] - X[1559771,1559766,2]
   - X[1559771,1559766,1] - X[1559772,1559766,1] - X[1559779,1559766,3]
   - X[1559775,1559766,2] - X[1559775,1559766,1] - X[1559779,1559766,1]
   - X[1559780,1559766,1] - X[1559780,1559766,2] = 0
 non_customer_flow[1559766]: X[1559766,1595470,2] + X[1559766,1595470,1]
   - X[1559768,1559766,3] - X[1559768,1559766,1] - X[1559771,1559766,2]
   - X[1559771,1559766,1] - X[1559772,1559766,1] - X[1559779,1559766,3]
   - X[1559775,1559766,2] - X[1559775,1559766,1] - X[1559779,1559766,1]
   - X[1559780,1559766,1] - X[1559780,1559766,2] = 0
 non_customer_flow[1559773]: X[1559773,1559767,2] + X[1559773,1559767,1]
   - X[1559765,1559773,4] - X[1559765,1559773,3] - X[1559765,1559773,1]
   - X[1559768,1559773,1] - X[1559776,1559773,1] - X[1559779,1559773,3]
   - X[1559779,1559773,1] = 0
 non_customer_flow[1559773]: X[1559773,1559767,2] + X[1559773,1559767,1]
   - X[1559765,1559773,4] - X[1559765,1559773,3] - X[1559765,1559773,1]
   - X[1559768,1559773,1] - X[1559776,1559773,1] - X[1559779,1559773,3]
   - X[1559779,1559773,1] = 0
 non_customer_flow[1559773]: X[1559773,1559767,2] + X[1559773,1559767,1]
   - X[1559765,1559773,4] - X[1559765,1559773,3] - X[1559765,1559773,1]
   - X[1559768,1559773,1] - X[1559776,1559773,1] - X[1559779,1559773,3]
   - X[1559779,1559773,1] = 0
 non_customer_flow[1559773]: X[1559773,1559767,2] + X[1559773,1559767,1]
   - X[1559765,1559773,4] - X[1559765,1559773,3] - X[1559765,1559773,1]
   - X[1559768,1559773,1] - X[1559776,1559773,1] - X[1559779,1559773,3]
   - X[1559779,1559773,1] = 0
 capacity_constraint[1559766]: X[1559768,1559766,3] + X[1559768,1559766,1]
   + X[1559771,1559766,2] + X[1559771,1559766,1] + X[1559772,1559766,1]
   + X[1559779,1559766,3] + X[1559775,1559766,2] + X[1559775,1559766,1]
   + X[1559779,1559766,1] + X[1559780,1559766,1] + X[1559780,1559766,2]
   - 94 O[1559766] <= 0
 capacity_constraint[1559766]: X[1559768,1559766,3] + X[1559768,1559766,1]
   + X[1559771,1559766,2] + X[1559771,1559766,1] + X[1559772,1559766,1]
   + X[1559779,1559766,3] + X[1559775,1559766,2] + X[1559775,1559766,1]
   + X[1559779,1559766,1] + X[1559780,1559766,1] + X[1559780,1559766,2]
   - 94 O[1559766] <= 0
 capacity_constraint[1559766]: X[1559768,1559766,3] + X[1559768,1559766,1]
   + X[1559771,1559766,2] + X[1559771,1559766,1] + X[1559772,1559766,1]
   + X[1559779,1559766,3] + X[1559775,1559766,2] + X[1559775,1559766,1]
   + X[1559779,1559766,1] + X[1559780,1559766,1] + X[1559780,1559766,2]
   - 94 O[1559766] <= 0
 capacity_constraint[1559766]: X[1559768,1559766,3] + X[1559768,1559766,1]
   + X[1559771,1559766,2] + X[1559771,1559766,1] + X[1559772,1559766,1]
   + X[1559779,1559766,3] + X[1559775,1559766,2] + X[1559775,1559766,1]
   + X[1559779,1559766,1] + X[1559780,1559766,1] + X[1559780,1559766,2]
   - 94 O[1559766] <= 0
 capacity_constraint[1559781]: X[1559779,1559781,1] - 62448 O[1559781]
   <= 0
 capacity_constraint[1559766]: X[1559768,1559766,3] + X[1559768,1559766,1]
   + X[1559771,1559766,2] + X[1559771,1559766,1] + X[1559772,1559766,1]
   + X[1559779,1559766,3] + X[1559775,1559766,2] + X[1559775,1559766,1]
   + X[1559779,1559766,1] + X[1559780,1559766,1] + X[1559780,1559766,2]
   - 94 O[1559766] <= 0
 capacity_constraint[1559766]: X[1559768,1559766,3] + X[1559768,1559766,1]
   + X[1559771,1559766,2] + X[1559771,1559766,1] + X[1559772,1559766,1]
   + X[1559779,1559766,3] + X[1559775,1559766,2] + X[1559775,1559766,1]
   + X[1559779,1559766,1] + X[1559780,1559766,1] + X[1559780,1559766,2]
   - 94 O[1559766] <= 0
 capacity_constraint[1559773]: X[1559765,1559773,4] + X[1559765,1559773,3]
   + X[1559765,1559773,1] + X[1559768,1559773,1] + X[1559776,1559773,1]
   + X[1559779,1559773,3] + X[1559779,1559773,1] - 4.969925e+06 O[1559773]
   <= 0
 capacity_constraint[1559773]: X[1559765,1559773,4] + X[1559765,1559773,3]
   + X[1559765,1559773,1] + X[1559768,1559773,1] + X[1559776,1559773,1]
   + X[1559779,1559773,3] + X[1559779,1559773,1] - 4.969925e+06 O[1559773]
   <= 0
 capacity_constraint[1559773]: X[1559765,1559773,4] + X[1559765,1559773,3]
   + X[1559765,1559773,1] + X[1559768,1559773,1] + X[1559776,1559773,1]
   + X[1559779,1559773,3] + X[1559779,1559773,1] - 4.969925e+06 O[1559773]
   <= 0
 capacity_constraint[1559773]: X[1559765,1559773,4] + X[1559765,1559773,3]
   + X[1559765,1559773,1] + X[1559768,1559773,1] + X[1559776,1559773,1]
   + X[1559779,1559773,3] + X[1559779,1559773,1] - 4.969925e+06 O[1559773]
   <= 0
 non_customer_flow[1559765]: - X[1559775,1559765,1] + X[1559765,1559773,4]
   + X[1559765,1559773,3] + X[1559765,1559773,1] = 0
 capacity_constraint[1559765]: X[1559775,1559765,1]
   - 2.588088e+06 O[1559765] <= 0
 alpha_constraint[7098]: - 0.14279 X[1559766,1595470,2]
   - 0.14279 X[1559766,1595470,1] + X[1559768,1559766,3]
   + X[1559768,1559766,1] = 0
 alpha_constraint[7100]: - 0.01134 X[1559766,1595470,2]
   - 0.01134 X[1559766,1595470,1] + X[1559772,1559766,1] = 0
 alpha_constraint[7102]: - 0.79807 X[1559766,1595470,2]
   - 0.79807 X[1559766,1595470,1] + X[1559779,1559766,3]
   + X[1559779,1559766,1] = 0
 alpha_constraint[7104]: - 0.03455 X[1559766,1595470,2]
   - 0.03455 X[1559766,1595470,1] + X[1559780,1559766,1]
   + X[1559780,1559766,2] = 0
 alpha_constraint[7106]: - 0.00444 X[1559766,1595470,2]
   - 0.00444 X[1559766,1595470,1] + X[1559771,1559766,2]
   + X[1559771,1559766,1] = 0
 alpha_constraint[7108]: - 0.00881 X[1559766,1595470,2]
   - 0.00881 X[1559766,1595470,1] + X[1559775,1559766,2]
   + X[1559775,1559766,1] = 0
 alpha_constraint[12]: - 0.52075 X[1559773,1559767,2]
   - 0.52075 X[1559773,1559767,1] + X[1559765,1559773,4]
   + X[1559765,1559773,3] + X[1559765,1559773,1] = 0
 alpha_constraint[16]: - 0.03242 X[1559773,1559767,2]
   - 0.03242 X[1559773,1559767,1] + X[1559776,1559773,1] = 0
 alpha_constraint[18]: - 0.30987 X[1559773,1559767,2]
   - 0.30987 X[1559773,1559767,1] + X[1559779,1559773,3]
   + X[1559779,1559773,1] = 0
 alpha_constraint[20]: - 0.13696 X[1559773,1559767,2]
   - 0.13696 X[1559773,1559767,1] + X[1559768,1559773,1] = 0
 alpha_constraint[13]: X[1559775,1559765,1] - X[1559765,1559773,4]
   - X[1559765,1559773,3] - X[1559765,1559773,1] = 0
 alpha_constraint[19835]: X[1559779,1559781,1] - X[1559781,1559770,2]
   - X[1559781,1559770,1] = 0
Bounds
Binaries
 O[1559766] O[1559765] O[1559767] O[1559773] O[1595822] O[1595590]
 O[1595591] O[1595592] O[1595593] O[1595594] O[1595595] O[1595596]
 O[1595597] O[1595598] O[1595599] O[1595600] O[1595601] O[1595602]
 O[1595603] O[1595764] O[1595765] O[1595766] O[1595767] O[1595768]
 O[1595769] O[1595770] O[1595771] O[1595772] O[1595773] O[1595774]
 O[1595775] O[1595776] O[1595777] O[1595778] O[1595779] O[1595780]
 O[1595781] O[1595782] O[1595783] O[1595784] O[1595785] O[1595786]
 O[1595787] O[1595788] O[1595789] O[1595790] O[1595791] O[1595792]
 O[1595793] O[1595794] O[1595795] O[1595796] O[1595797] O[1595798]
 O[1595799] O[1595800] O[1595801] O[1595802] O[1595803] O[1595804]
 O[1595805] O[1595806] O[1595807] O[1595808] O[1595809] O[1595810]
 O[1595811] O[1595812] O[1595813] O[1595814] O[1595815] O[1595816]
 O[1595817] O[1595818] O[1595819] O[1595820] O[1595821] O[1559769]
 O[1559771] O[1559772] O[1559774] O[1559775] O[1559776] O[1559777]
 O[1559778] O[1559779] O[1559780] O[1596300] O[1595447] O[1595448]
 O[1595449] O[1595450] O[1595451] O[1595452] O[1595453] O[1595454]
 O[1595455] O[1595456] O[1595457] O[1595458] O[1595459] O[1595460]
 O[1595461] O[1595462] O[1595463] O[1595464] O[1595465] O[1595466]
 O[1595467] O[1595468] O[1595469] O[1595470] O[1595471] O[1595472]
 O[1595473] O[1595474] O[1595475] O[1595476] O[1595477] O[1595478]
 O[1595479] O[1595480] O[1595481] O[1595482] O[1595483] O[1595484]
 O[1595485] O[1595486] O[1595487] O[1595488] O[1595489] O[1595490]
 O[1595491] O[1595492] O[1595493] O[1595494] O[1595495] O[1595496]
 O[1595497] O[1595498] O[1595499] O[1595500] O[1595501] O[1595502]
 O[1595503] O[1595504] O[1595735] O[1595736] O[1595737] O[1595738]
 O[1595739] O[1595740] O[1595741] O[1595742] O[1595743] O[1595744]
 O[1595745] O[1595746] O[1595747] O[1595748] O[1595749] O[1595750]
 O[1595751] O[1595752] O[1595753] O[1595754] O[1595755] O[1595756]
 O[1595757] O[1595758] O[1595759] O[1595760] O[1595761] O[1595762]
 O[1595763] O[1595842] O[1595843] O[1595844] O[1595845] O[1595846]
 O[1595847] O[1595848] O[1595849] O[1595850] O[1595851] O[1595852]
 O[1595853] O[1595854] O[1595855] O[1595856] O[1595857] O[1595858]
 O[1595859] O[1595860] O[1595861] O[1595862] O[1595863] O[1595864]
 O[1595865] O[1595866] O[1595867] O[1595868] O[1595869] O[1595870]
 O[1595871] O[1595872] O[1595873] O[1595874] O[1595875] O[1595876]
 O[1595877] O[1595878] O[1595879] O[1595880] O[1595881] O[1595882]
 O[1595883] O[1595884] O[1596085] O[1596086] O[1596087] O[1596088]
 O[1596089] O[1596090] O[1596091] O[1596092] O[1596093] O[1596094]
 O[1596095] O[1596096] O[1596097] O[1596098] O[1596099] O[1596100]
 O[1596101] O[1596102] O[1596103] O[1596104] O[1596105] O[1596106]
 O[1596107] O[1596108] O[1596109] O[1596110] O[1596111] O[1596112]
 O[1596113] O[1596114] O[1596115] O[1596116] O[1596117] O[1596118]
 O[1596119] O[1596120] O[1596121] O[1596173] O[1596174] O[1596175]
 O[1596176] O[1596177] O[1596178] O[1596179] O[1596180] O[1596181]
 O[1596182] O[1596183] O[1596184] O[1596185] O[1596186] O[1596187]
 O[1596188] O[1596189] O[1596190] O[1596191] O[1596192] O[1596193]
 O[1596194] O[1596195] O[1596196] O[1596197] O[1596198] O[1596199]
 O[1596200] O[1596201] O[1596202] O[1596203] O[1596204] O[1596205]
 O[1596206] O[1596355] O[1596356] O[1596357] O[1596358] O[1596359]
 O[1596360] O[1596361] O[1596362] O[1596363] O[1596364] O[1596365]
 O[1596366] O[1596367] O[1596368] O[1596369] O[1596370] O[1596371]
 O[1596372] O[1596373] O[1596374] O[1596375] O[1596376] O[1596377]
 O[1596378] O[1596379] O[1596380] O[1596381] O[1596382] O[1596383]
 O[1596384] O[1596385] O[1596386] O[1596387] O[1596388] O[1596389]
 O[1596390] O[1595605] O[1595606] O[1595607] O[1595608] O[1595609]
 O[1595610] O[1595611] O[1595612] O[1595613] O[1595614] O[1595615]
 O[1595616] O[1595617] O[1595618] O[1595619] O[1595620] O[1595621]
 O[1595622] O[1595623] O[1595624] O[1595625] O[1595626] O[1595627]
 O[1595628] O[1595629] O[1595630] O[1595631] O[1595632] O[1595633]
 O[1595634] O[1595635] O[1595636] O[1595637] O[1595638] O[1595639]
 O[1595640] O[1595604] O[1595526] O[1595527] O[1595528] O[1595529]
 O[1595530] O[1595531] O[1595532] O[1595533] O[1595534] O[1595535]
 O[1595536] O[1595537] O[1595538] O[1595539] O[1595540] O[1595541]
 O[1595542] O[1595543] O[1595544] O[1595545] O[1595546] O[1595547]
 O[1595548] O[1595549] O[1595550] O[1595551] O[1595552] O[1595553]
 O[1595554] O[1595555] O[1595556] O[1595557] O[1595558] O[1595559]
 O[1595560] O[1595561] O[1595562] O[1595563] O[1595564] O[1595565]
 O[1595566] O[1595567] O[1595568] O[1595569] O[1595570] O[1595571]
 O[1595572] O[1595573] O[1595574] O[1595575] O[1595576] O[1595577]
 O[1595578] O[1595579] O[1595580] O[1595581] O[1595582] O[1595583]
 O[1595584] O[1595585] O[1595586] O[1595587] O[1595588] O[1595589]
 O[1596003] O[1596004] O[1596005] O[1596006] O[1596007] O[1596008]
 O[1596009] O[1596010] O[1596011] O[1596012] O[1596122] O[1596123]
 O[1596124] O[1596125] O[1596126] O[1596127] O[1596128] O[1596129]
 O[1596130] O[1596131] O[1596132] O[1596133] O[1596134] O[1596135]
 O[1596136] O[1596137] O[1596138] O[1596139] O[1596140] O[1596141]
 O[1596142] O[1596143] O[1596144] O[1596145] O[1596146] O[1596147]
 O[1596148] O[1596149] O[1596150] O[1596151] O[1596152] O[1596153]
 O[1596154] O[1596155] O[1596156] O[1596157] O[1596158] O[1596159]
 O[1596160] O[1596161] O[1596162] O[1596163] O[1596164] O[1596165]
 O[1596166] O[1596167] O[1596168] O[1596169] O[1596170] O[1596171]
 O[1596172] O[1596224] O[1596225] O[1596226] O[1596227] O[1596228]
 O[1596229] O[1596230] O[1596231] O[1596232] O[1596233] O[1596234]
 O[1596235] O[1596236] O[1596237] O[1596238] O[1596239] O[1596240]
 O[1596241] O[1596242] O[1596243] O[1596244] O[1596245] O[1596246]
 O[1596247] O[1596248] O[1596249] O[1596250] O[1596251] O[1596252]
 O[1596253] O[1596254] O[1596255] O[1596256] O[1596257] O[1596258]
 O[1596259] O[1596260] O[1596261] O[1596262] O[1596263] O[1596264]
 O[1596265] O[1596266] O[1596267] O[1596268] O[1596269] O[1596270]
 O[1596271] O[1596272] O[1596273] O[1596274] O[1596275] O[1596276]
 O[1596277] O[1596278] O[1596279] O[1596280] O[1596281] O[1596282]
 O[1596283] O[1596284] O[1596285] O[1596286] O[1596287] O[1596288]
 O[1596289] O[1596290] O[1596291] O[1596292] O[1596293] O[1596294]
 O[1596295] O[1596296] O[1596297] O[1596298] O[1596299] O[1559764]
 O[1559768] O[1595505] O[1595506] O[1595507] O[1595508] O[1595509]
 O[1595510] O[1595511] O[1595512] O[1595513] O[1595514] O[1595515]
 O[1595516] O[1595517] O[1595518] O[1595519] O[1595520] O[1595521]
 O[1595522] O[1595523] O[1595524] O[1595525] O[1595684] O[1595685]
 O[1595686] O[1595687] O[1595688] O[1595689] O[1595690] O[1595691]
 O[1595692] O[1595693] O[1595694] O[1595695] O[1595696] O[1595697]
 O[1595698] O[1595699] O[1595700] O[1595701] O[1595702] O[1595703]
 O[1595704] O[1595705] O[1595706] O[1595707] O[1595708] O[1595709]
 O[1595710] O[1595711] O[1595712] O[1595713] O[1595714] O[1595715]
 O[1595716] O[1595717] O[1595718] O[1595719] O[1595720] O[1595721]
 O[1595722] O[1595723] O[1595724] O[1595725] O[1595726] O[1595727]
 O[1595728] O[1595729] O[1595730] O[1595731] O[1595732] O[1595733]
 O[1595734] O[1595885] O[1595886] O[1595887] O[1595888] O[1595889]
 O[1595890] O[1595891] O[1595892] O[1595893] O[1595894] O[1595895]
 O[1595896] O[1595897] O[1595898] O[1595899] O[1595900] O[1595901]
 O[1595902] O[1595903] O[1595904] O[1595905] O[1595906] O[1595907]
 O[1595908] O[1595909] O[1595910] O[1595911] O[1595912] O[1595913]
 O[1595914] O[1595915] O[1595916] O[1595917] O[1595918] O[1595919]
 O[1595920] O[1595921] O[1595922] O[1595923] O[1595924] O[1595925]
 O[1595926] O[1595927] O[1595928] O[1595929] O[1595930] O[1595931]
 O[1595932] O[1595933] O[1595934] O[1595935] O[1595936] O[1595937]
 O[1595938] O[1595939] O[1595940] O[1595941] O[1595942] O[1595943]
 O[1595944] O[1595945] O[1595946] O[1595947] O[1595948] O[1595949]
 O[1595950] O[1595951] O[1595952] O[1596013] O[1596014] O[1596015]
 O[1596016] O[1596017] O[1596018] O[1596019] O[1596020] O[1596021]
 O[1596022] O[1596023] O[1596024] O[1596025] O[1596026] O[1596027]
 O[1596028] O[1596029] O[1596030] O[1596031] O[1596032] O[1596033]
 O[1596034] O[1596035] O[1596036] O[1596037] O[1596038] O[1596039]
 O[1596040] O[1596041] O[1596042] O[1596043] O[1596044] O[1596045]
 O[1596046] O[1596047] O[1596048] O[1596049] O[1596050] O[1596051]
 O[1596052] O[1596053] O[1596054] O[1596055] O[1596056] O[1596057]
 O[1596058] O[1596059] O[1596060] O[1596061] O[1596062] O[1596063]
 O[1596064] O[1596065] O[1596066] O[1596067] O[1596068] O[1596069]
 O[1596070] O[1596071] O[1596072] O[1596073] O[1596074] O[1596075]
 O[1596076] O[1596077] O[1596078] O[1596079] O[1596080] O[1596081]
 O[1596082] O[1596083] O[1596084] O[1596207] O[1596208] O[1596209]
 O[1596210] O[1596211] O[1596212] O[1596213] O[1596214] O[1596215]
 O[1596216] O[1596217] O[1596218] O[1596219] O[1596220] O[1596221]
 O[1596222] O[1596223] O[1596301] O[1596302] O[1596303] O[1596304]
 O[1596305] O[1596306] O[1596307] O[1596308] O[1596309] O[1596310]
 O[1596311] O[1596312] O[1596313] O[1596314] O[1596315] O[1596316]
 O[1596317] O[1596318] O[1596319] O[1596320] O[1596321] O[1596322]
 O[1596323] O[1596324] O[1596325] O[1596326] O[1596327] O[1596328]
 O[1596329] O[1596330] O[1596331] O[1596332] O[1596333] O[1596334]
 O[1596335] O[1596336] O[1596337] O[1596338] O[1596339] O[1596340]
 O[1596341] O[1596342] O[1596343] O[1596344] O[1596345] O[1596346]
 O[1596347] O[1596348] O[1596349] O[1596350] O[1596351] O[1596352]
 O[1596353] O[1596354] O[1595641] O[1595642] O[1595643] O[1595644]
 O[1595645] O[1595646] O[1595647] O[1595648] O[1595649] O[1595650]
 O[1595651] O[1595652] O[1595653] O[1595654] O[1595655] O[1595656]
 O[1595657] O[1595658] O[1595659] O[1595660] O[1595661] O[1595662]
 O[1595663] O[1595664] O[1595665] O[1595666] O[1595667] O[1595668]
 O[1595669] O[1595670] O[1595671] O[1595672] O[1595673] O[1595674]
 O[1595675] O[1595676] O[1595677] O[1595678] O[1595679] O[1595680]
 O[1595681] O[1595682] O[1595683] O[1595823] O[1595824] O[1595825]
 O[1595826] O[1595827] O[1595828] O[1595829] O[1595830] O[1595831]
 O[1595832] O[1595833] O[1595834] O[1595835] O[1595836] O[1595837]
 O[1595838] O[1595839] O[1595840] O[1595841] O[1595953] O[1595954]
 O[1595955] O[1595956] O[1595957] O[1595958] O[1595959] O[1595960]
 O[1595961] O[1595962] O[1595963] O[1595964] O[1595965] O[1595966]
 O[1595967] O[1595968] O[1595969] O[1595970] O[1595971] O[1595972]
 O[1595973] O[1595974] O[1595975] O[1595976] O[1595977] O[1595978]
 O[1595979] O[1595980] O[1595981] O[1595982] O[1595983] O[1595984]
 O[1595985] O[1595986] O[1595987] O[1595988] O[1595989] O[1595990]
 O[1595991] O[1595992] O[1595993] O[1595994] O[1595995] O[1595996]
 O[1595997] O[1595998] O[1595999] O[1596000] O[1596001] O[1596002]
 O[1559770] O[1559781]
End
